interdiction/MCDM/NO_CORR/GEN_FROM_60/13_ITEMS_1000_GEN/K5013W05.KNP.mps
NAME          BLANK   
ROWS
 N  OBJROW
 L  R0000000
COLUMNS
    C0000000  OBJROW     -651.         R0000000  150.        
    C0000001  OBJROW     -534.         R0000000  363.        
    C0000002  OBJROW     -482.         R0000000  980.        
    C0000003  OBJROW     -183.         R0000000  758.        
    C0000004  OBJROW     -64.          R0000000  285.        
    C0000005  OBJROW     -851.         R0000000  999.        
    C0000006  OBJROW     -471.         R0000000  622.        
    C0000007  OBJROW     -924.         R0000000  883.        
    C0000008  OBJROW     -365.         R0000000  527.        
    C0000009  OBJROW     -38.          R0000000  803.        
    C0000010  OBJROW     -822.         R0000000  381.        
    C0000011  OBJROW     -77.          R0000000  95.         
    C0000012  OBJROW     -887.         R0000000  722.        
RHS
    RHS       R0000000  16539.      
BOUNDS
 BV BOUND     C0000000  1.          
 BV BOUND     C0000001  1.          
 BV BOUND     C0000002  1.          
 BV BOUND     C0000003  1.          
 BV BOUND     C0000004  1.          
 BV BOUND     C0000005  1.          
 BV BOUND     C0000006  1.          
 BV BOUND     C0000007  1.          
 BV BOUND     C0000008  1.          
 BV BOUND     C0000009  1.          
 BV BOUND     C0000010  1.          
 BV BOUND     C0000011  1.          
 BV BOUND     C0000012  1.          
ENDATA
