interdiction/MCDM/NO_CORR/GEN_FROM_60/13_ITEMS_1000_GEN/K5013W05.KNP.txt
N 13
M 14
LC 13
LC 14
LC 15
LC 16
LC 17
LC 18
LC 19
LC 20
LC 21
LC 22
LC 23
LC 24
LC 25
LR 1
LR 2
LR 3
LR 4
LR 5
LR 6
LR 7
LR 8
LR 9
LR 10
LR 11
LR 12
LR 13
LR 14
LO -651
LO -534
LO -482
LO -183
LO -64
LO -851
LO -471
LO -924
LO -365
LO -38
LO -822
LO -77
LO -887
OS 1
IC 95
IC 563
IC 293
IC 6
IC 167
IC 562
IC 519
IC 412
IC 471
IC 93
IC 86
IC 720
IC 5
IB 1996
